p cnf 10 46
 7 2 -9 0
 7 6 -8 0
 -8 7 -6 0
 -9 4 7 0
 8 -4 6 0
 -3 -10 -2 0
 -4 -1 -7 0
 -2 -1 7 0
 -5 6 -2 0
 8 3 -6 0
 7 -1 -3 0
 4 -5 -3 0
 9 -8 4 0
 -4 9 -10 0
 -6 -2 10 0
 -8 5 -4 0
 3 8 -1 0
 -8 7 -9 0
 -5 10 -8 0
 -9 4 -1 0
 -1 -9 -2 0
 -9 3 -5 0
 2 -7 -3 0
 3 -9 -4 0
 -5 -4 -3 0
 -2 -1 -9 0
 -9 -2 -7 0
 -5 -8 3 0
 8 9 -7 0
 6 9 -1 0
 -6 -8 7 0
 10 5 7 0
 6 10 1 0
 2 -9 6 0
 9 7 2 0
 -9 -8 -7 0
 8 10 -3 0
 -6 -4 -8 0
 2 1 7 0
 -4 -7 -1 0
 6 -2 10 0
 -8 4 -10 0
 1 -8 -10 0
 -2 1 -3 0
 -6 -9 10 0
 -7 -3 -1 0
c 1 a_1
c 2 a_2
c 3 a_3
c 4 a_4
c 5 a_5
c 6 a_6
c 7 a_7
c 8 a_8
c 9 a_9
c 10 a_10
